c This is a random SAT instance with 10 variables and 20 clauses
p cnf 10 20
-10 -3 4 0
3 10 -6 9 -3 0
-1 5 0
8 -8 5 3 -9 -4 -5 -2 0
8 -6 -4 -9 -10 2 9 -2 0
0
-1 -5 0
8 10 -9 3 -6 4 0
2 -1 0
9 -1 2 -7 4 -2 0
3 5 -6 7 8 4 -8 -1 0
5 4 -4 -1 2 7 -5 8 -7 0
6 2 3 -3 -4 -2 8 -7 -1 -8 0
-5 6 1 5 8 3 0
-1 7 5 6 10 -9 -3 -5 9 -10 0
2 -4 6 9 10 0
2 0
-6 8 4 -8 7 6 9 -10 -5 -7 0
-5 -4 6 3 -10 -1 -3 -7 0
-10 -1 0